NAME : KROD99B
TYPE : PDTSP
DIMENSION : 99
EDGE_WEIGHT_TYPE : EUC_2D
NODE_COORD_SECTION
1 2995 264
2 202 233
3 981 848
4 1346 408
5 781 670
6 1009 1001
7 2927 1777
8 2982 949
9 555 1121
10 464 1302
11 3452 637
12 571 1982
13 2656 128
14 1623 1723
15 2067 694
16 1725 927
17 3600 459
18 1109 1196
19 366 339
20 778 1282
21 386 1616
22 3918 1217
23 3332 1049
24 811 1295
25 241 1069
26 2658 360
27 394 1944
28 3786 1862
29 264 36
30 2050 1833
31 3538 125
32 1646 1817
33 2993 624
34 547 25
35 3373 1902
36 460 267
37 3060 781
38 1828 456
39 1021 962
40 2347 388
41 3535 1112
42 1529 581
43 1203 385
44 1787 1902
45 2740 1101
46 555 1753
47 47 363
48 3935 540
49 3062 329
50 387 199
51 2901 920
52 931 512
53 1766 692
54 401 980
55 149 1629
56 2214 1977
57 3805 1619
58 1179 969
59 1017 333
60 2834 1512
61 634 294
62 1819 814
63 1393 859
64 1768 1578
65 3023 871
66 3248 1906
67 1632 1742
68 2223 990
69 3868 697
70 1541 354
71 2374 1944
72 1962 389
73 3007 1524
74 3220 1945
75 2356 1568
76 1604 706
77 2028 1736
78 2581 121
79 2221 1578
80 2944 632
81 1082 1561
82 997 942
83 2334 523
84 1264 1090
85 1699 1294
86 235 1059
87 2592 248
88 3642 699
89 3599 514
90 1766 678
91 240 619
92 1272 246
93 3503 301
94 80 1533
95 1677 1238
96 3766 154
97 3946 459
98 1994 1852
99 278 165
PICKUP_AND_DELIVERY_SECTION
1 0 0 0 0 0 0
2 0 0 0 0 36 0
3 0 0 0 0 39 0
4 0 0 0 0 0 43
5 0 0 0 0 59 0
6 0 0 0 0 13 0
7 0 0 0 0 0 14
8 0 0 0 0 0 17
9 0 0 0 0 0 33
10 0 0 0 0 54 0
11 0 0 0 0 41 0
12 0 0 0 0 0 55
13 0 0 0 0 0 6
14 0 0 0 0 7 0
15 0 0 0 0 23 0
16 0 0 0 0 0 72
17 0 0 0 0 8 0
18 0 0 0 0 0 29
19 0 0 0 0 0 25
20 0 0 0 0 51 0
21 0 0 0 0 0 86
22 0 0 0 0 97 0
23 0 0 0 0 0 15
24 0 0 0 0 27 0
25 0 0 0 0 19 0
26 0 0 0 0 0 40
27 0 0 0 0 0 24
28 0 0 0 0 0 66
29 0 0 0 0 18 0
30 0 0 0 0 0 79
31 0 0 0 0 49 0
32 0 0 0 0 0 98
33 0 0 0 0 9 0
34 0 0 0 0 53 0
35 0 0 0 0 45 0
36 0 0 0 0 0 2
37 0 0 0 0 0 60
38 0 0 0 0 0 62
39 0 0 0 0 0 3
40 0 0 0 0 26 0
41 0 0 0 0 0 11
42 0 0 0 0 84 0
43 0 0 0 0 4 0
44 0 0 0 0 83 0
45 0 0 0 0 0 35
46 0 0 0 0 0 81
47 0 0 0 0 94 0
48 0 0 0 0 80 0
49 0 0 0 0 0 31
50 0 0 0 0 0 52
51 0 0 0 0 0 20
52 0 0 0 0 50 0
53 0 0 0 0 0 34
54 0 0 0 0 0 10
55 0 0 0 0 12 0
56 0 0 0 0 71 0
57 0 0 0 0 0 96
58 0 0 0 0 0 63
59 0 0 0 0 0 5
60 0 0 0 0 37 0
61 0 0 0 0 91 0
62 0 0 0 0 38 0
63 0 0 0 0 58 0
64 0 0 0 0 0 95
65 0 0 0 0 0 69
66 0 0 0 0 28 0
67 0 0 0 0 0 77
68 0 0 0 0 70 0
69 0 0 0 0 65 0
70 0 0 0 0 0 68
71 0 0 0 0 0 56
72 0 0 0 0 16 0
73 0 0 0 0 0 75
74 0 0 0 0 89 0
75 0 0 0 0 73 0
76 0 0 0 0 0 92
77 0 0 0 0 67 0
78 0 0 0 0 87 0
79 0 0 0 0 30 0
80 0 0 0 0 0 48
81 0 0 0 0 46 0
82 0 0 0 0 0 99
83 0 0 0 0 0 44
84 0 0 0 0 0 42
85 0 0 0 0 90 0
86 0 0 0 0 21 0
87 0 0 0 0 0 78
88 0 0 0 0 93 0
89 0 0 0 0 0 74
90 0 0 0 0 0 85
91 0 0 0 0 0 61
92 0 0 0 0 76 0
93 0 0 0 0 0 88
94 0 0 0 0 0 47
95 0 0 0 0 64 0
96 0 0 0 0 57 0
97 0 0 0 0 0 22
98 0 0 0 0 32 0
99 0 0 0 0 82 0
DEPOT_SECTION
1 
-1
EOF
